# first_value: 1544
0 1544
1 1544
2 1544
3 1544
4 1544
5 1463
6 1454
7 1454
8 1454
9 1454
10 1454
11 1454
12 1454
13 1454
14 1454
15 1454
16 1454
17 1454
18 1454
19 1454
20 1454
21 1454
22 1454
23 1454
24 1454
25 1454
26 1454
27 1454
28 1454
29 1454
30 1454
31 1454
32 1454
33 1454
34 1454
35 1454
36 1454
37 1454
38 1454
39 1454
40 1454
41 1454
42 1454
43 1454
44 1454
45 1454
46 1407
47 1407
48 1407
49 1407
50 1407
51 1407
52 1407
53 1407
54 1407
55 1407
56 1402
57 1402
58 1402
59 1402
60 1402
61 1402
62 1402
63 1402
64 1402
65 1402
66 1402
67 1402
68 1402
69 1402
70 1402
71 1402
72 1402
73 1402
74 1402
75 1402
76 1402
77 1402
78 1402
79 1402
80 1402
81 1402
82 1402
83 1402
84 1402
85 1402
86 1402
87 1402
88 1402
89 1402
90 1402
91 1402
92 1402
93 1402
94 1402
95 1402
96 1402
97 1402
98 1402
99 1402
100 1402
101 1402
102 1402
103 1402
104 1402
105 1402
106 1402
107 1402
108 1402
109 1402
110 1402
111 1402
112 1402
113 1402
114 1402
115 1402
116 1402
117 1402
118 1402
119 1402
120 1402
121 1402
122 1402
123 1402
124 1402
125 1402
126 1402
127 1402
128 1402
129 1402
130 1402
131 1402
132 1402
133 1402
134 1402
135 1402
136 1402
137 1402
138 1402
139 1402
140 1402
141 1402
142 1402
143 1402
144 1402
145 1402
146 1402
147 1402
148 1402
149 1402
150 1402
151 1402
152 1402
153 1402
154 1402
155 1402
156 1402
157 1402
158 1402
159 1402
160 1402
161 1402
162 1402
163 1402
164 1402
165 1402
166 1402
167 1402
168 1402
169 1402
170 1402
171 1402
172 1402
173 1402
174 1402
175 1402
176 1402
177 1402
178 1402
179 1402
180 1402
181 1402
182 1402
183 1402
184 1402
185 1402
186 1402
187 1402
188 1402
189 1402
190 1402
191 1402
192 1402
193 1402
194 1402
195 1402
196 1402
197 1402
198 1402
199 1402
200 1402
201 1402
202 1402
203 1402
204 1402
205 1402
206 1402
207 1402
208 1402
209 1402
210 1402
211 1402
212 1402
213 1402
214 1402
215 1402
216 1402
217 1402
218 1402
219 1402
220 1402
221 1402
222 1402
223 1402
224 1402
225 1402
226 1402
227 1402
228 1402
229 1402
230 1402
231 1402
232 1402
233 1402
234 1402
235 1402
236 1402
237 1402
238 1402
239 1402
240 1402
241 1402
242 1402
243 1402
244 1402
245 1402
246 1402
247 1402
248 1402
249 1402
250 1402
251 1402
252 1402
253 1402
254 1402
255 1402
256 1402
257 1402
258 1402
259 1402
260 1402
261 1402
262 1402
263 1402
264 1402
265 1402
266 1402
267 1402
268 1402
269 1402
270 1402
271 1402
272 1402
273 1402
274 1402
275 1402
276 1402
277 1402
278 1402
279 1402
280 1402
281 1402
282 1402
283 1402
284 1402
285 1402
286 1402
287 1402
288 1402
289 1402
290 1402
291 1402
292 1402
293 1402
294 1402
295 1402
296 1402
297 1402
298 1402
299 1402
300 1402
301 1402
302 1402
303 1402
304 1402
305 1402
306 1402
307 1402
308 1402
309 1402
310 1402
311 1402
312 1402
313 1402
314 1402
315 1402
316 1402
317 1402
318 1402
319 1402
320 1402
321 1402
322 1402
323 1402
324 1402
325 1402
326 1402
327 1402
328 1402
329 1402
330 1402
331 1402
332 1402
333 1402
334 1402
335 1402
336 1402
337 1402
338 1402
339 1402
340 1402
341 1402
342 1402
343 1402
344 1402
345 1402
346 1402
347 1402
348 1402
349 1402
350 1402
351 1402
352 1402
353 1402
354 1402
355 1402
356 1402
357 1402
358 1402
359 1402
360 1402
361 1402
362 1402
363 1402
364 1402
365 1402
366 1402
367 1402
368 1402
369 1402
370 1402
371 1402
372 1402
373 1402
374 1402
375 1402
376 1402
377 1402
378 1402
379 1402
380 1402
381 1402
382 1402
383 1402
384 1402
385 1402
386 1402
387 1402
388 1402
389 1402
390 1402
391 1402
392 1402
393 1402
394 1402
395 1402
396 1402
397 1402
398 1402
399 1402
400 1333
401 1333
402 1333
403 1333
404 1333
405 1333
406 1333
407 1333
408 1333
409 1333
410 1333
411 1333
412 1333
413 1333
414 1333
415 1333
416 1333
417 1333
418 1333
419 1333
420 1333
421 1333
422 1333
423 1333
424 1333
425 1333
426 1333
427 1333
428 1333
429 1333
430 1333
431 1333
432 1333
433 1333
434 1333
435 1333
436 1333
437 1333
438 1333
439 1333
440 1333
441 1333
442 1333
443 1333
444 1333
445 1333
446 1333
447 1333
448 1333
449 1333
450 1333
451 1333
452 1333
453 1333
454 1333
455 1333
456 1333
457 1333
458 1333
459 1333
460 1333
461 1333
462 1333
463 1333
464 1333
465 1333
466 1333
467 1333
468 1333
469 1333
470 1333
471 1333
472 1333
473 1333
474 1333
475 1333
476 1333
477 1333
478 1333
479 1333
480 1333
481 1333
482 1333
483 1333
484 1333
485 1333
486 1333
487 1333
488 1333
489 1333
490 1333
491 1333
492 1333
493 1333
494 1333
495 1333
496 1333
497 1333
498 1333
499 1333
500 1333
501 1333
502 1333
503 1333
504 1333
505 1333
506 1333
507 1333
508 1333
509 1333
510 1333
511 1333
512 1333
513 1333
514 1333
515 1333
516 1333
517 1333
518 1333
519 1333
520 1333
521 1333
522 1333
523 1333
524 1333
525 1333
526 1333
527 1333
528 1333
529 1333
530 1333
531 1333
532 1333
533 1333
534 1333
535 1333
536 1333
537 1333
538 1333
539 1333
540 1333
541 1333
542 1333
543 1333
544 1333
545 1333
546 1333
547 1333
548 1333
549 1333
550 1333
551 1333
552 1333
553 1333
554 1333
555 1333
556 1333
557 1333
558 1333
559 1333
560 1333
561 1333
562 1333
563 1333
564 1333
565 1333
566 1333
567 1333
568 1333
569 1333
570 1333
571 1333
572 1333
573 1333
574 1333
575 1333
576 1333
577 1333
578 1333
579 1333
580 1333
581 1333
582 1333
583 1333
584 1333
585 1333
586 1333
587 1333
588 1333
589 1333
590 1333
591 1333
592 1333
593 1333
594 1333
595 1333
596 1333
597 1333
598 1333
599 1333
600 1333
601 1333
602 1333
603 1333
604 1333
605 1333
606 1333
607 1333
608 1333
609 1333
610 1333
611 1333
612 1333
613 1333
614 1333
615 1333
616 1333
617 1333
618 1333
619 1333
620 1333
621 1333
622 1333
623 1333
624 1333
625 1333
626 1333
627 1333
628 1333
629 1333
630 1333
631 1333
632 1333
633 1333
634 1333
635 1333
636 1333
637 1333
638 1333
639 1333
640 1333
641 1333
642 1333
643 1333
644 1333
645 1333
646 1333
647 1333
648 1333
649 1333
650 1333
651 1333
652 1333
653 1333
654 1333
655 1333
656 1333
657 1333
658 1333
659 1333
660 1333
661 1333
662 1333
663 1333
664 1333
665 1333
666 1333
667 1333
668 1333
669 1333
670 1333
671 1333
672 1333
673 1333
674 1333
675 1333
676 1333
677 1333
678 1333
679 1333
680 1333
681 1333
682 1333
683 1333
684 1333
685 1333
686 1333
687 1333
688 1333
689 1333
690 1333
691 1333
692 1333
693 1333
694 1333
695 1333
696 1333
697 1333
698 1333
699 1333
700 1333
701 1333
702 1333
703 1333
704 1333
705 1333
706 1333
707 1333
708 1333
709 1333
710 1333
711 1333
712 1333
713 1333
714 1333
715 1333
716 1333
717 1333
718 1333
719 1333
720 1333
721 1333
722 1333
723 1333
724 1333
725 1333
726 1333
727 1333
728 1333
729 1333
730 1333
731 1333
732 1333
733 1333
734 1333
735 1333
736 1333
737 1333
738 1333
739 1333
740 1333
741 1333
742 1333
743 1333
744 1333
745 1333
746 1333
747 1333
748 1333
749 1333
750 1333
751 1333
752 1333
753 1333
754 1333
755 1333
756 1333
757 1333
758 1333
759 1333
760 1333
761 1333
762 1333
763 1333
764 1333
765 1333
766 1333
767 1333
768 1333
769 1333
770 1333
771 1333
772 1333
773 1333
774 1333
775 1333
776 1333
777 1333
778 1333
779 1333
780 1333
781 1333
782 1333
783 1333
784 1333
785 1333
786 1333
787 1333
788 1333
789 1333
790 1333
791 1333
792 1333
793 1333
794 1333
795 1333
796 1333
797 1333
798 1333
799 1333
800 1333
801 1333
802 1333
803 1333
804 1333
805 1333
806 1333
807 1333
808 1333
809 1333
810 1333
811 1333
812 1333
813 1333
814 1333
815 1333
816 1333
817 1333
818 1333
819 1333
820 1333
821 1333
822 1333
823 1333
824 1333
825 1333
826 1333
827 1333
828 1333
829 1333
830 1333
831 1333
832 1333
833 1333
834 1333
835 1333
836 1333
837 1333
838 1333
839 1333
840 1333
841 1333
842 1333
843 1333
844 1333
845 1333
846 1333
847 1333
848 1333
849 1333
850 1333
851 1333
852 1333
853 1333
854 1333
855 1333
856 1333
857 1333
858 1333
859 1333
860 1333
861 1333
862 1333
863 1333
864 1333
865 1333
866 1333
867 1333
868 1333
869 1333
870 1333
871 1333
872 1333
873 1333
874 1333
875 1333
876 1333
877 1333
878 1333
879 1333
880 1333
881 1333
882 1333
883 1333
884 1333
885 1333
886 1333
887 1333
888 1333
889 1333
890 1333
891 1333
892 1333
893 1333
894 1333
895 1333
896 1333
897 1333
898 1333
899 1333
900 1333
901 1333
902 1333
903 1333
904 1333
905 1333
906 1333
907 1333
908 1333
909 1333
910 1333
911 1333
912 1333
913 1333
914 1333
915 1333
916 1333
917 1333
918 1333
919 1333
920 1333
921 1333
922 1333
923 1333
924 1333
925 1333
926 1333
927 1333
928 1333
929 1333
930 1333
931 1333
932 1333
933 1333
934 1333
935 1333
936 1333
937 1333
938 1333
939 1333
940 1333
941 1333
942 1333
943 1333
944 1333
945 1333
946 1333
947 1333
948 1333
949 1333
950 1333
951 1333
952 1333
953 1333
954 1333
955 1333
956 1333
957 1333
958 1333
959 1333
960 1333
961 1333
962 1333
963 1333
964 1333
965 1333
966 1333
967 1333
968 1333
969 1333
970 1333
971 1333
972 1333
973 1333
974 1333
975 1333
976 1333
977 1333
978 1333
979 1333
980 1333
981 1333
982 1333
983 1333
984 1333
985 1333
986 1333
987 1333
988 1333
989 1333
990 1333
991 1333
992 1333
993 1333
994 1333
995 1333
996 1333
997 1333
998 1333
999 1333
1000 1333
1001 1333
1002 1333
1003 1333
1004 1333
1005 1333
1006 1333
1007 1333
1008 1333
1009 1333
1010 1333
1011 1333
1012 1333
1013 1333
1014 1333
1015 1333
1016 1333
1017 1333
1018 1333
1019 1333
1020 1333
1021 1333
1022 1333
1023 1333
1024 1333
1025 1333
1026 1333
1027 1333
1028 1333
1029 1333
1030 1333
1031 1333
1032 1333
1033 1333
1034 1333
1035 1333
1036 1333
1037 1333
1038 1333
1039 1333
1040 1333
1041 1333
1042 1333
1043 1333
1044 1333
1045 1333
1046 1333
1047 1333
1048 1333
1049 1333
1050 1333
1051 1333
1052 1333
1053 1333
1054 1333
1055 1333
1056 1333
1057 1333
1058 1333
1059 1333
1060 1333
1061 1333
1062 1333
1063 1333
1064 1333
1065 1333
1066 1333
1067 1333
1068 1333
1069 1333
1070 1333
1071 1333
1072 1333
1073 1333
1074 1333
1075 1333
1076 1333
1077 1333
1078 1333
1079 1333
1080 1333
1081 1333
1082 1333
1083 1333
1084 1333
1085 1333
1086 1333
1087 1333
1088 1333
1089 1333
1090 1333
1091 1333
1092 1333
1093 1333
1094 1333
1095 1333
1096 1333
1097 1333
1098 1333
1099 1333
1100 1333
1101 1333
1102 1333
1103 1333
1104 1333
1105 1333
1106 1333
1107 1333
1108 1333
1109 1333
1110 1333
1111 1333
1112 1333
1113 1333
1114 1333
1115 1333
1116 1333
1117 1333
1118 1333
1119 1333
1120 1333
1121 1333
1122 1333
1123 1333
1124 1333
1125 1333
1126 1333
1127 1333
1128 1333
1129 1333
1130 1333
1131 1333
1132 1333
1133 1333
1134 1333
1135 1333
1136 1333
1137 1333
1138 1333
1139 1333
1140 1333
1141 1333
1142 1333
1143 1333
1144 1333
1145 1333
1146 1333
1147 1333
1148 1333
1149 1333
1150 1333
1151 1333
1152 1333
1153 1333
1154 1333
1155 1333
1156 1333
1157 1333
1158 1333
1159 1333
1160 1333
1161 1333
1162 1333
1163 1333
1164 1333
1165 1333
1166 1333
1167 1333
1168 1333
1169 1333
1170 1333
1171 1333
1172 1333
1173 1333
1174 1333
1175 1333
1176 1333
1177 1333
1178 1333
1179 1333
1180 1333
1181 1333
1182 1333
1183 1333
1184 1333
1185 1333
1186 1333
1187 1333
1188 1333
1189 1333
1190 1333
1191 1333
1192 1333
1193 1333
1194 1333
1195 1333
1196 1333
1197 1333
1198 1333
1199 1333
1200 1333
1201 1333
1202 1333
1203 1333
1204 1333
1205 1333
1206 1333
1207 1333
1208 1333
1209 1333
1210 1333
1211 1333
1212 1333
1213 1333
1214 1333
1215 1333
1216 1333
1217 1333
1218 1333
1219 1333
1220 1333
1221 1333
1222 1333
1223 1333
1224 1333
1225 1333
1226 1333
1227 1333
1228 1333
1229 1333
1230 1333
1231 1333
1232 1333
1233 1333
1234 1333
1235 1333
1236 1333
1237 1333
1238 1333
1239 1333
1240 1333
1241 1333
1242 1333
1243 1333
1244 1333
1245 1333
1246 1333
1247 1333
1248 1333
1249 1333
1250 1333
1251 1333
1252 1333
1253 1333
1254 1333
1255 1333
1256 1333
1257 1333
1258 1333
1259 1333
1260 1333
1261 1333
1262 1333
1263 1333
1264 1333
1265 1333
1266 1333
1267 1333
1268 1333
1269 1333
1270 1333
1271 1333
1272 1333
1273 1333
1274 1333
1275 1333
1276 1333
1277 1333
1278 1333
1279 1333
1280 1333
1281 1333
1282 1333
1283 1333
1284 1333
1285 1333
1286 1333
1287 1333
1288 1333
1289 1333
1290 1333
1291 1333
1292 1333
1293 1333
1294 1333
1295 1333
1296 1333
1297 1333
1298 1333
1299 1333
1300 1333
1301 1333
1302 1333
1303 1333
1304 1333
1305 1333
1306 1333
1307 1333
1308 1333
1309 1333
1310 1333
1311 1333
1312 1333
1313 1333
1314 1333
1315 1333
1316 1333
1317 1333
1318 1333
1319 1333
1320 1333
1321 1333
1322 1333
1323 1333
1324 1333
1325 1333
1326 1333
1327 1333
1328 1333
1329 1333
1330 1333
1331 1333
1332 1333
1333 1333
1334 1333
1335 1333
1336 1333
1337 1333
1338 1333
1339 1333
1340 1333
1341 1333
1342 1333
1343 1333
1344 1333
1345 1333
1346 1333
1347 1333
1348 1333
1349 1333
1350 1333
1351 1333
1352 1333
1353 1333
1354 1333
1355 1333
1356 1333
1357 1333
1358 1333
1359 1333
1360 1333
1361 1333
1362 1333
1363 1333
1364 1333
1365 1333
1366 1333
1367 1333
1368 1333
1369 1333
1370 1333
1371 1333
1372 1333
1373 1333
1374 1333
1375 1333
1376 1333
1377 1333
1378 1333
1379 1333
1380 1333
1381 1333
1382 1333
1383 1333
1384 1333
1385 1333
1386 1333
1387 1333
1388 1333
1389 1333
1390 1333
1391 1333
1392 1333
1393 1333
1394 1333
1395 1333
1396 1333
1397 1333
1398 1333
1399 1333
1400 1333
1401 1333
1402 1333
1403 1333
1404 1333
1405 1333
1406 1333
1407 1333
1408 1333
1409 1333
1410 1333
1411 1333
1412 1333
1413 1333
1414 1333
1415 1333
1416 1333
1417 1333
1418 1333
1419 1333
1420 1333
1421 1333
1422 1333
1423 1333
1424 1333
1425 1333
1426 1333
1427 1333
1428 1333
1429 1333
1430 1333
1431 1333
1432 1333
1433 1333
1434 1333
1435 1333
1436 1333
1437 1333
1438 1333
1439 1333
1440 1333
1441 1333
1442 1333
1443 1333
1444 1333
1445 1333
1446 1333
1447 1333
1448 1333
1449 1333
1450 1333
1451 1333
1452 1333
1453 1333
1454 1333
1455 1333
1456 1333
1457 1333
1458 1333
1459 1333
1460 1333
1461 1333
1462 1333
1463 1333
1464 1333
1465 1333
1466 1333
1467 1333
1468 1333
1469 1333
1470 1333
1471 1333
1472 1333
1473 1333
1474 1333
1475 1333
1476 1333
1477 1333
1478 1333
1479 1333
1480 1333
1481 1333
1482 1333
1483 1333
1484 1333
1485 1333
1486 1333
1487 1333
1488 1333
1489 1333
1490 1333
1491 1333
1492 1333
1493 1333
1494 1333
1495 1333
1496 1333
1497 1333
1498 1333
1499 1333
1500 1333
1501 1333
1502 1333
1503 1333
1504 1333
1505 1333
1506 1333
1507 1333
1508 1333
1509 1333
1510 1333
1511 1333
1512 1333
1513 1333
1514 1333
1515 1333
1516 1333
1517 1333
1518 1333
1519 1333
1520 1333
1521 1333
1522 1333
1523 1333
1524 1333
1525 1333
1526 1333
1527 1333
1528 1333
1529 1333
1530 1333
1531 1333
1532 1333
1533 1333
1534 1333
1535 1333
1536 1333
1537 1333
1538 1333
1539 1333
1540 1333
1541 1333
1542 1333
1543 1333
1544 1333
1545 1333
1546 1333
1547 1333
1548 1333
1549 1333
1550 1333
1551 1333
1552 1333
1553 1333
1554 1333
1555 1333
1556 1333
1557 1333
1558 1333
1559 1333
1560 1333
1561 1333
1562 1333
1563 1333
1564 1333
1565 1333
1566 1333
1567 1333
1568 1333
1569 1333
1570 1333
1571 1333
1572 1333
1573 1333
1574 1333
1575 1333
1576 1333
1577 1333
1578 1333
1579 1333
1580 1333
1581 1333
1582 1333
1583 1333
1584 1333
1585 1333
1586 1333
1587 1333
1588 1333
1589 1333
1590 1333
1591 1333
1592 1333
1593 1333
1594 1333
1595 1333
1596 1333
1597 1333
1598 1333
1599 1333
1600 1333
1601 1333
1602 1333
1603 1333
1604 1333
1605 1333
1606 1333
1607 1333
1608 1333
1609 1333
1610 1333
1611 1333
1612 1333
1613 1333
1614 1333
1615 1333
1616 1333
1617 1333
1618 1333
1619 1333
1620 1333
1621 1333
1622 1333
1623 1333
1624 1333
1625 1333
1626 1333
1627 1333
1628 1333
1629 1333
1630 1333
1631 1333
1632 1333
1633 1333
1634 1333
1635 1333
1636 1333
1637 1333
1638 1333
1639 1333
1640 1333
1641 1333
1642 1333
1643 1333
1644 1333
1645 1333
1646 1333
1647 1333
1648 1333
1649 1333
1650 1333
1651 1333
1652 1333
1653 1333
1654 1333
1655 1333
1656 1333
1657 1333
1658 1333
1659 1333
1660 1333
1661 1333
1662 1333
1663 1333
1664 1333
1665 1333
1666 1333
1667 1333
1668 1333
1669 1333
1670 1333
1671 1333
1672 1333
1673 1333
1674 1333
1675 1333
1676 1333
1677 1333
1678 1333
1679 1333
1680 1333
1681 1333
1682 1333
1683 1333
1684 1333
1685 1333
1686 1333
1687 1333
1688 1333
1689 1333
1690 1333
1691 1333
1692 1333
1693 1333
1694 1333
1695 1333
1696 1333
1697 1333
1698 1333
1699 1333
1700 1333
1701 1333
1702 1333
1703 1333
1704 1333
1705 1333
1706 1333
1707 1333
1708 1333
1709 1333
1710 1333
1711 1333
1712 1333
1713 1333
1714 1333
1715 1333
1716 1333
1717 1333
1718 1333
1719 1333
1720 1333
1721 1333
1722 1333
1723 1333
1724 1333
1725 1333
1726 1333
1727 1333
1728 1333
1729 1333
1730 1333
1731 1333
1732 1333
1733 1333
1734 1333
1735 1333
1736 1333
1737 1333
1738 1333
1739 1333
1740 1333
1741 1333
1742 1333
1743 1333
1744 1333
1745 1333
1746 1333
1747 1333
1748 1333
1749 1333
1750 1333
1751 1333
1752 1333
1753 1333
1754 1333
1755 1333
1756 1333
1757 1333
1758 1333
1759 1333
1760 1333
1761 1333
1762 1333
1763 1333
1764 1333
1765 1333
1766 1333
1767 1333
1768 1333
1769 1333
1770 1333
1771 1333
1772 1333
1773 1333
1774 1333
1775 1333
1776 1333
1777 1333
1778 1333
1779 1333
1780 1333
1781 1333
1782 1333
1783 1333
1784 1333
1785 1333
1786 1333
1787 1333
1788 1333
1789 1333
1790 1333
1791 1333
1792 1333
1793 1333
1794 1333
1795 1333
1796 1333
1797 1333
1798 1333
1799 1333
1800 1333
1801 1333
1802 1333
1803 1333
1804 1333
1805 1333
1806 1333
1807 1333
1808 1333
1809 1333
1810 1333
1811 1333
1812 1333
1813 1333
1814 1333
1815 1333
1816 1333
1817 1333
1818 1333
1819 1333
1820 1333
1821 1333
1822 1333
1823 1333
1824 1333
1825 1333
1826 1333
1827 1333
1828 1333
1829 1333
1830 1333
1831 1333
1832 1333
1833 1333
1834 1333
1835 1333
1836 1333
1837 1333
1838 1333
1839 1333
1840 1333
1841 1333
1842 1333
1843 1333
1844 1333
1845 1333
1846 1333
1847 1333
1848 1333
1849 1333
1850 1333
1851 1333
1852 1333
1853 1333
1854 1333
1855 1333
1856 1333
1857 1333
1858 1333
1859 1333
1860 1333
1861 1333
1862 1333
1863 1333
1864 1333
1865 1333
1866 1333
1867 1333
1868 1333
1869 1333
1870 1333
1871 1333
1872 1333
1873 1333
1874 1333
1875 1333
1876 1333
1877 1333
1878 1333
1879 1333
1880 1333
1881 1333
1882 1333
1883 1333
1884 1333
1885 1333
1886 1333
1887 1333
1888 1333
1889 1333
1890 1333
1891 1333
1892 1333
1893 1333
1894 1333
1895 1333
1896 1333
1897 1333
1898 1333
1899 1333
1900 1333
1901 1333
1902 1333
1903 1333
1904 1333
1905 1333
1906 1333
1907 1333
1908 1333
1909 1333
1910 1333
1911 1333
1912 1333
1913 1333
1914 1333
1915 1333
1916 1333
1917 1333
1918 1333
1919 1333
1920 1333
1921 1333
1922 1333
1923 1333
1924 1333
1925 1333
1926 1333
1927 1333
1928 1333
1929 1333
1930 1333
1931 1333
1932 1333
1933 1333
1934 1333
1935 1333
1936 1333
1937 1333
1938 1333
1939 1333
1940 1333
1941 1333
1942 1333
1943 1333
1944 1333
1945 1333
1946 1333
1947 1333
1948 1333
1949 1333
1950 1333
1951 1333
1952 1333
1953 1333
1954 1333
1955 1333
1956 1333
1957 1333
1958 1333
1959 1333
1960 1333
1961 1333
1962 1333
1963 1333
1964 1333
1965 1333
1966 1333
1967 1333
1968 1333
1969 1333
1970 1333
1971 1333
1972 1333
1973 1333
1974 1333
1975 1333
1976 1333
1977 1333
1978 1333
1979 1333
1980 1333
1981 1333
1982 1333
1983 1333
1984 1333
1985 1333
1986 1333
1987 1333
1988 1333
1989 1333
1990 1333
1991 1333
1992 1333
1993 1333
1994 1333
1995 1333
1996 1333
1997 1333
1998 1333
1999 1333
2000 1333
2001 1333
2002 1333
2003 1333
2004 1333
2005 1333
2006 1333
2007 1333
2008 1333
2009 1333
2010 1333
2011 1333
2012 1333
2013 1333
2014 1333
2015 1333
2016 1333
2017 1333
2018 1333
2019 1333
2020 1333
2021 1333
2022 1333
2023 1333
2024 1333
2025 1333
2026 1333
2027 1333
2028 1333
2029 1333
2030 1333
2031 1333
2032 1333
2033 1333
2034 1333
2035 1333
2036 1333
2037 1333
2038 1333
2039 1333
2040 1333
2041 1333
2042 1333
2043 1333
2044 1333
2045 1333
2046 1333
2047 1333
2048 1333
2049 1333
2050 1333
2051 1333
2052 1333
2053 1333
2054 1333
2055 1333
2056 1333
2057 1333
2058 1333
2059 1333
2060 1333
2061 1333
2062 1333
2063 1333
2064 1333
2065 1333
2066 1333
2067 1333
2068 1333
2069 1333
2070 1333
2071 1333
2072 1333
2073 1333
2074 1333
2075 1333
2076 1333
2077 1333
2078 1333
2079 1333
2080 1333
2081 1333
2082 1333
2083 1333
2084 1333
2085 1333
2086 1333
2087 1333
2088 1333
2089 1333
2090 1333
2091 1333
2092 1333
2093 1333
2094 1333
2095 1333
2096 1333
2097 1333
2098 1333
2099 1333
2100 1333
2101 1333
2102 1333
2103 1333
2104 1333
2105 1333
2106 1333
2107 1333
2108 1333
2109 1333
2110 1333
2111 1333
2112 1333
2113 1333
2114 1333
2115 1333
2116 1333
2117 1333
2118 1333
2119 1333
2120 1333
2121 1333
2122 1333
2123 1333
2124 1333
2125 1333
2126 1333
2127 1333
2128 1333
2129 1333
2130 1333
2131 1333
2132 1333
2133 1333
2134 1333
2135 1333
2136 1333
2137 1333
2138 1333
2139 1333
2140 1333
2141 1333
2142 1333
2143 1333
2144 1333
2145 1333
2146 1333
2147 1333
2148 1333
2149 1333
2150 1333
2151 1333
2152 1333
2153 1333
2154 1333
2155 1333
2156 1333
2157 1333
2158 1333
2159 1333
2160 1333
2161 1333
2162 1333
2163 1333
2164 1333
2165 1333
2166 1333
2167 1333
2168 1333
2169 1333
2170 1333
2171 1333
2172 1333
2173 1333
2174 1333
2175 1333
2176 1333
2177 1333
2178 1333
2179 1333
2180 1333
2181 1333
2182 1333
2183 1333
2184 1333
2185 1333
2186 1333
2187 1333
2188 1333
2189 1333
2190 1333
2191 1333
2192 1333
2193 1333
2194 1333
2195 1333
2196 1333
2197 1333
2198 1333
2199 1333
2200 1333
2201 1333
2202 1333
2203 1333
2204 1333
2205 1333
2206 1333
2207 1333
2208 1333
2209 1333
2210 1333
2211 1333
2212 1333
2213 1333
2214 1333
2215 1333
2216 1333
2217 1333
2218 1333
2219 1333
2220 1333
2221 1333
2222 1333
2223 1333
2224 1333
2225 1333
2226 1333
2227 1333
2228 1333
2229 1333
2230 1333
2231 1333
2232 1333
2233 1333
2234 1333
2235 1333
2236 1333
2237 1333
2238 1333
2239 1333
2240 1333
2241 1333
2242 1333
2243 1333
2244 1333
2245 1333
2246 1333
2247 1333
2248 1333
2249 1333
2250 1333
2251 1333
2252 1333
2253 1333
2254 1333
2255 1333
2256 1333
2257 1333
2258 1333
2259 1333
2260 1333
2261 1333
2262 1333
2263 1333
2264 1333
2265 1333
2266 1333
2267 1333
2268 1333
2269 1333
2270 1333
2271 1333
2272 1333
2273 1333
2274 1333
2275 1333
2276 1333
2277 1333
2278 1333
2279 1333
2280 1333
2281 1333
2282 1333
2283 1333
2284 1333
2285 1333
2286 1333
2287 1333
2288 1333
2289 1333
2290 1333
2291 1333
2292 1333
2293 1333
2294 1333
2295 1333
2296 1333
2297 1333
2298 1333
2299 1333
2300 1333
2301 1333
2302 1333
2303 1333
2304 1333
2305 1333
2306 1333
2307 1333
2308 1333
2309 1333
2310 1333
2311 1333
2312 1333
2313 1333
2314 1333
2315 1333
2316 1333
2317 1333
2318 1333
2319 1333
2320 1333
2321 1333
2322 1333
2323 1333
2324 1333
2325 1333
2326 1333
2327 1333
2328 1333
2329 1333
2330 1333
2331 1333
2332 1333
2333 1333
2334 1333
2335 1333
2336 1333
2337 1333
2338 1333
2339 1333
2340 1333
2341 1333
2342 1333
2343 1333
2344 1333
2345 1333
2346 1333
2347 1333
2348 1333
2349 1333
2350 1333
2351 1333
2352 1333
2353 1333
2354 1333
2355 1333
2356 1333
2357 1333
2358 1333
2359 1333
2360 1333
2361 1333
2362 1333
2363 1333
2364 1333
2365 1333
2366 1333
2367 1333
2368 1333
2369 1333
2370 1333
2371 1333
2372 1333
2373 1333
2374 1333
2375 1333
2376 1333
2377 1333
2378 1333
2379 1333
2380 1333
2381 1333
2382 1333
2383 1333
2384 1333
2385 1333
2386 1333
2387 1333
2388 1333
2389 1333
2390 1333
2391 1333
2392 1333
2393 1333
2394 1333
2395 1333
2396 1333
2397 1333
2398 1333
2399 1333
2400 1333
2401 1333
2402 1333
2403 1333
2404 1333
2405 1333
2406 1333
2407 1333
2408 1333
2409 1333
2410 1333
2411 1333
2412 1333
2413 1333
2414 1333
2415 1333
2416 1333
2417 1333
2418 1333
2419 1333
2420 1333
2421 1333
2422 1333
2423 1333
2424 1333
2425 1333
2426 1333
2427 1333
2428 1333
2429 1333
2430 1333
2431 1333
2432 1333
2433 1333
2434 1333
2435 1333
2436 1333
2437 1333
2438 1333
2439 1333
2440 1333
2441 1333
2442 1333
2443 1333
2444 1333
2445 1333
2446 1333
2447 1333
2448 1333
2449 1333
2450 1333
2451 1333
2452 1333
2453 1333
2454 1333
2455 1333
2456 1333
2457 1333
2458 1333
2459 1333
2460 1333
2461 1333
2462 1333
2463 1333
2464 1333
2465 1333
2466 1333
2467 1333
2468 1333
2469 1333
2470 1333
2471 1333
2472 1333
2473 1333
2474 1333
2475 1333
2476 1333
2477 1333
2478 1333
2479 1333
2480 1333
2481 1333
2482 1333
2483 1333
2484 1333
2485 1333
2486 1333
2487 1333
2488 1333
2489 1333
2490 1333
2491 1333
2492 1333
2493 1333
2494 1333
2495 1333
2496 1333
2497 1333
2498 1333
2499 1333
2500 1333
2501 1333
2502 1333
2503 1333
2504 1333
2505 1333
2506 1333
2507 1333
2508 1333
2509 1333
2510 1333
2511 1333
2512 1333
2513 1333
2514 1333
2515 1333
2516 1333
2517 1333
2518 1333
2519 1333
2520 1333
2521 1333
2522 1333
2523 1333
2524 1333
2525 1333
2526 1333
2527 1333
2528 1333
2529 1333
2530 1333
2531 1333
2532 1333
2533 1333
2534 1333
2535 1333
2536 1333
2537 1333
2538 1333
2539 1333
2540 1333
2541 1333
2542 1333
2543 1333
2544 1333
2545 1333
2546 1333
2547 1333
2548 1333
2549 1333
2550 1333
2551 1333
2552 1333
2553 1333
2554 1333
2555 1333
2556 1333
2557 1333
2558 1333
2559 1333
2560 1333
2561 1333
2562 1333
2563 1333
2564 1333
2565 1333
2566 1333
2567 1333
2568 1333
2569 1333
2570 1333
2571 1333
2572 1333
2573 1333
2574 1333
2575 1333
2576 1333
2577 1333
2578 1333
2579 1333
2580 1333
2581 1333
2582 1333
2583 1333
2584 1333
2585 1333
2586 1333
2587 1333
2588 1333
2589 1333
2590 1333
2591 1333
2592 1333
2593 1333
2594 1333
2595 1333
2596 1333
2597 1333
2598 1333
2599 1333
2600 1333
2601 1333
2602 1333
2603 1333
2604 1333
2605 1333
2606 1333
2607 1333
2608 1333
2609 1333
2610 1333
2611 1333
2612 1333
2613 1333
2614 1333
2615 1333
2616 1333
2617 1333
2618 1333
2619 1333
2620 1333
2621 1333
2622 1333
2623 1333
2624 1333
2625 1333
2626 1333
2627 1333
2628 1333
2629 1333
2630 1333
2631 1333
2632 1333
2633 1333
2634 1333
2635 1333
2636 1333
2637 1333
2638 1333
2639 1333
2640 1333
2641 1333
2642 1333
2643 1333
2644 1333
2645 1333
2646 1333
2647 1333
2648 1333
2649 1333
2650 1333
2651 1333
2652 1333
2653 1333
2654 1333
2655 1333
2656 1333
2657 1333
2658 1333
2659 1333
2660 1333
2661 1333
2662 1333
2663 1333
2664 1333
2665 1333
2666 1333
2667 1333
2668 1333
2669 1333
2670 1333
2671 1333
2672 1333
2673 1333
2674 1333
2675 1333
2676 1333
2677 1333
2678 1333
2679 1333
2680 1333
2681 1333
2682 1333
2683 1333
2684 1333
2685 1333
2686 1333
2687 1333
2688 1333
2689 1333
2690 1333
2691 1333
2692 1333
2693 1333
2694 1333
2695 1333
2696 1333
2697 1333
2698 1333
2699 1333
2700 1333
2701 1333
2702 1333
2703 1333
2704 1306
2705 1306
2706 1306
2707 1306
2708 1306
2709 1306
2710 1306
2711 1306
2712 1306
2713 1306
2714 1306
2715 1306
2716 1306
2717 1306
2718 1306
2719 1306
2720 1306
2721 1306
2722 1306
2723 1306
2724 1306
2725 1306
2726 1306
2727 1306
2728 1306
2729 1306
2730 1306
2731 1306
2732 1306
2733 1306
2734 1306
2735 1306
2736 1306
2737 1306
2738 1306
2739 1306
2740 1306
2741 1306
2742 1306
2743 1306
2744 1306
2745 1306
2746 1306
2747 1306
2748 1306
2749 1306
2750 1306
2751 1306
2752 1306
2753 1306
2754 1306
2755 1306
2756 1306
2757 1306
2758 1306
2759 1306
2760 1306
2761 1306
2762 1306
2763 1306
2764 1306
2765 1306
2766 1306
2767 1306
2768 1306
2769 1306
2770 1306
2771 1306
2772 1306
2773 1306
2774 1306
2775 1306
2776 1306
2777 1306
2778 1306
2779 1306
2780 1306
2781 1306
2782 1306
2783 1306
2784 1306
2785 1306
2786 1306
2787 1306
2788 1306
2789 1306
2790 1306
2791 1306
2792 1306
2793 1306
2794 1306
2795 1306
2796 1306
2797 1306
2798 1306
2799 1306
2800 1306
2801 1306
2802 1306
2803 1306
2804 1306
2805 1306
2806 1306
2807 1306
2808 1306
2809 1306
2810 1306
2811 1306
2812 1306
2813 1306
2814 1306
2815 1306
2816 1306
2817 1306
2818 1306
2819 1306
2820 1306
2821 1306
2822 1306
2823 1306
2824 1306
2825 1306
2826 1306
2827 1306
2828 1306
2829 1306
2830 1306
2831 1306
2832 1306
2833 1306
2834 1306
2835 1306
2836 1306
2837 1306
2838 1306
2839 1306
2840 1306
2841 1306
2842 1306
2843 1306
2844 1306
2845 1306
2846 1306
2847 1306
2848 1306
2849 1306
2850 1306
2851 1306
2852 1306
2853 1306
2854 1306
2855 1306
2856 1306
2857 1306
2858 1306
2859 1306
2860 1306
2861 1306
2862 1306
2863 1306
2864 1306
2865 1306
2866 1306
2867 1306
2868 1306
2869 1306
2870 1306
2871 1306
2872 1306
2873 1306
2874 1306
2875 1306
2876 1306
2877 1306
2878 1306
2879 1306
2880 1306
2881 1306
2882 1306
2883 1306
2884 1306
2885 1306
2886 1306
2887 1306
2888 1306
2889 1306
2890 1306
2891 1306
2892 1306
2893 1306
2894 1306
2895 1306
2896 1306
2897 1306
2898 1306
2899 1306
2900 1306
2901 1306
2902 1306
2903 1306
2904 1306
2905 1306
2906 1306
2907 1306
2908 1306
2909 1306
2910 1306
2911 1306
2912 1306
2913 1306
2914 1306
2915 1306
2916 1306
2917 1306
2918 1306
2919 1306
2920 1306
2921 1306
2922 1306
2923 1306
2924 1306
2925 1306
2926 1306
2927 1306
2928 1306
2929 1306
2930 1306
2931 1306
2932 1306
2933 1306
2934 1306
2935 1306
2936 1306
2937 1306
2938 1306
2939 1306
2940 1306
2941 1306
2942 1306
2943 1306
2944 1306
2945 1306
2946 1306
2947 1306
2948 1306
2949 1306
2950 1306
2951 1306
2952 1306
2953 1306
2954 1306
2955 1306
2956 1306
2957 1306
2958 1306
2959 1306
2960 1306
2961 1306
2962 1306
2963 1306
2964 1306
2965 1306
2966 1306
2967 1306
2968 1306
2969 1306
2970 1306
2971 1306
2972 1306
2973 1306
2974 1306
2975 1306
2976 1306
2977 1306
2978 1306
2979 1306
2980 1306
2981 1306
2982 1306
2983 1306
2984 1306
2985 1306
2986 1306
2987 1306
2988 1306
2989 1306
2990 1306
2991 1306
2992 1306
2993 1306
2994 1306
2995 1306
2996 1306
2997 1306
2998 1306
2999 1306
3000 1306
# Final Best Cost: 1306
